c This is QMaxSAT 2018 (Constraints Journal Version)
c This is Glucose 3.0
c This is MiniSat 2.2.0
c WARNING: for repeatability, setting FPU to use double precision
c card = mrwto, comp = 0, pmodel = 0, incr = 1, verb = 0
cr nOfTaxi: 3
cr newDemandSize: 2
cr capacityOfEachTaxi: 3 3 3
cr noListOfCarried: 0 2 3
cr noListOfAcceptedPoint: 2 3 1
cr noListOfPickDrop: 1 -1 1 -1 -2 -3
cr currenTime: 10
cr deadlineList: 10 40 10 30 60 20
cr deadlineOfNewDemand: 10 90
c top = 1709
c |  Number of variables:    82                                               |
c |  Number of clauses:      524                                              |
c |  Weight of hard clauses: 1709                                             |
c |  Number of soft clauses: 45                                               |
c |  Number of unit soft clauses: 0                                           |
c |  Maximum Cardinality (by unit): 1708         (0           )               |
c last restart ## conflicts  :  3 52 
c Sum of weights = 1708
c A number of soft clauses remained = 45
c MRWTO encoding for Pseudo-Boolean Constraints
c sizeMax=194
c No.0 Divisor=14	generated by pow1
c No.1 Divisor=14	generated by pow1
c p0= 14	p1= 14	
c number of digits = 3
c linkingVar[0].size = 14, linkingVar[1].size = 14, linkingVar[2].size = 1, 
c Pseudo-Boolean Constraints: 785 variables and 6712 clauses
cr taxID: 0 | 0 3 4 1 2 (cost: 148)
cr exceed deadline
c last restart ## conflicts  :  2 95 
cr taxID: 0 | 0 3 1 4 2 (cost: 128)
cr exceed deadline
c last restart ## conflicts  :  3 67 
cr taxID: 0 | 0 3 1 2 4 (cost: 93)
cr exceed deadline
c last restart ## conflicts  :  33 81 
cr taxID: 2 | 0 2 1 3 (cost: 111)
cr over capacity
c last restart ## conflicts  :  26 74 
cr taxID: 2 | 0 1 2 3 (cost: 73)
c k = 73(0/5/3/) p1 = 14  p0 = 14 
o 73 | cpuTime 0 s
s OPTIMUM FOUND
cr final chain: [ | 0 1 2 | 0 1 3 2 | 0 1 2 3 | ]
cr cumulat. delay time: [ | 10 23 52 | 10 21 66 114 | 10 18 49 83 | ]
cr cumulat. carried no.: [ | 0 1 0 | 2 3 1 0 | 3 0 2 0 | ]
c Latest Answer = 73 by 5 loops
c restarts              : 6
c conflicts             : 104            (inf /sec)
c decisions             : 715            (0.00 % random) (inf /sec)
c propagations          : 16823          (inf /sec)
c conflict literals     : 616            (23.48 % deleted)
c Memory used           : 21.00 MB
c CPU time              : 0 s
